
(set-option :produce-models true)
(set-option :inline-size-limit 10000)

(declare-const var0 String)

(push 1)
(assert (str.in.re var0 (re.* (re.range "\x01" "\xff"))))
(assert (str.in.re var0 (re.++ (re.*? re.allchar) (re.++ (re.union (re.union (re.union (re.++ (re.+ (re.range "0" "9")) (re.++ (re.* (re.union (str.to.re "s") (re.union (str.to.re "t") (re.union (str.to.re "n") (re.union (str.to.re "d") (re.union (str.to.re "r") (str.to.re "h"))))))) (re.++ (re.* (re.union (str.to.re " ") (re.union (str.to.re "\u{0b}") (re.union (str.to.re "\u{0a}") (re.union (str.to.re "\u{0d}") (re.union (str.to.re "\u{09}") (str.to.re "\u{0c}"))))))) (re.++ ((_ re.capture 1) (re.union (re.union (re.union (re.union (re.union (re.union (re.union (re.union (re.union (re.union (re.union (re.++ (str.to.re "j") (re.++ (str.to.re "a") (str.to.re "n"))) (re.++ (str.to.re "f") (re.++ (str.to.re "e") (str.to.re "b")))) (re.++ (str.to.re "m") (re.++ (str.to.re "a") (str.to.re "r")))) (re.++ (str.to.re "a") (re.++ (str.to.re "p") (str.to.re "r")))) (re.++ (str.to.re "m") (re.++ (str.to.re "a") (str.to.re "y")))) (re.++ (str.to.re "j") (re.++ (str.to.re "u") (str.to.re "n")))) (re.++ (str.to.re "j") (re.++ (str.to.re "u") (str.to.re "l")))) (re.++ (str.to.re "a") (re.++ (str.to.re "u") (str.to.re "g")))) (re.++ (str.to.re "s") (re.++ (str.to.re "e") (str.to.re "p")))) (re.++ (str.to.re "o") (re.++ (str.to.re "c") (str.to.re "t")))) (re.++ (str.to.re "n") (re.++ (str.to.re "o") (str.to.re "v")))) (re.++ (str.to.re "d") (re.++ (str.to.re "e") (str.to.re "c"))))) (re.++ (re.* (re.range "a" "z")) (re.++ (re.* (re.union (str.to.re " ") (re.union (str.to.re "\u{0b}") (re.union (str.to.re "\u{0a}") (re.union (str.to.re "\u{0d}") (re.union (str.to.re "\u{09}") (str.to.re "\u{0c}"))))))) (re.union (re.++ (str.to.re "") ((_ re.capture 2) (re.++ (re.range "0" "9") (re.++ (re.range "0" "9") (re.++ (re.range "0" "9") (re.range "0" "9")))))) (str.to.re "")))))))) (re.++ ((_ re.capture 3) (re.union (re.union (re.union (re.union (re.union (re.union (re.union (re.union (re.union (re.union (re.union (re.++ (str.to.re "j") (re.++ (str.to.re "a") (str.to.re "n"))) (re.++ (str.to.re "f") (re.++ (str.to.re "e") (str.to.re "b")))) (re.++ (str.to.re "m") (re.++ (str.to.re "a") (str.to.re "r")))) (re.++ (str.to.re "a") (re.++ (str.to.re "p") (str.to.re "r")))) (re.++ (str.to.re "m") (re.++ (str.to.re "a") (str.to.re "y")))) (re.++ (str.to.re "j") (re.++ (str.to.re "u") (str.to.re "n")))) (re.++ (str.to.re "j") (re.++ (str.to.re "u") (str.to.re "l")))) (re.++ (str.to.re "a") (re.++ (str.to.re "u") (str.to.re "g")))) (re.++ (str.to.re "s") (re.++ (str.to.re "e") (str.to.re "p")))) (re.++ (str.to.re "o") (re.++ (str.to.re "c") (str.to.re "t")))) (re.++ (str.to.re "n") (re.++ (str.to.re "o") (str.to.re "v")))) (re.++ (str.to.re "d") (re.++ (str.to.re "e") (str.to.re "c"))))) (re.++ (re.* (re.range "a" "z")) (re.++ (re.* (re.union (str.to.re " ") (re.union (str.to.re "\u{0b}") (re.union (str.to.re "\u{0a}") (re.union (str.to.re "\u{0d}") (re.union (str.to.re "\u{09}") (str.to.re "\u{0c}"))))))) (re.++ (re.+ (re.range "0" "9")) (re.* (re.union (str.to.re "s") (re.union (str.to.re "t") (re.union (str.to.re "n") (re.union (str.to.re "d") (re.union (str.to.re "r") (str.to.re "h")))))))))))) (re.++ (re.+ (re.range "0" "9")) (re.++ (re.union (str.to.re "/") (re.union (str.to.re ".") (str.to.re "-"))) (re.++ (re.+ (re.range "0" "9")) (re.++ (re.union (str.to.re "/") (re.union (str.to.re ".") (str.to.re "-"))) (re.++ (re.+ (re.range "0" "9")) (re.+ (re.range "0" "9")))))))) (re.++ (re.* (re.union (str.to.re "s") (re.union (str.to.re "a") (re.union (str.to.re "t") (re.union (str.to.re "u") (re.union (str.to.re "r") (re.union (str.to.re "n") (re.union (str.to.re "m") (re.union (str.to.re "o") (re.union (str.to.re "e") (re.union (str.to.re "w") (re.union (str.to.re "d") (re.union (str.to.re "h") (re.union (str.to.re "f") (str.to.re "i"))))))))))))))) (re.++ (str.to.re "d") (re.++ (str.to.re "a") (str.to.re "y"))))) re.all))))	; match!==null
(assert (not (str.in.re ((_ str.extract 1) var0 (re.++ (re.*? re.allchar) (re.++ (re.union (re.union (re.union (re.++ (re.+ (re.range "0" "9")) (re.++ (re.* (re.union (str.to.re "s") (re.union (str.to.re "t") (re.union (str.to.re "n") (re.union (str.to.re "d") (re.union (str.to.re "r") (str.to.re "h"))))))) (re.++ (re.* (re.union (str.to.re " ") (re.union (str.to.re "\u{0b}") (re.union (str.to.re "\u{0a}") (re.union (str.to.re "\u{0d}") (re.union (str.to.re "\u{09}") (str.to.re "\u{0c}"))))))) (re.++ ((_ re.capture 1) (re.union (re.union (re.union (re.union (re.union (re.union (re.union (re.union (re.union (re.union (re.union (re.++ (str.to.re "j") (re.++ (str.to.re "a") (str.to.re "n"))) (re.++ (str.to.re "f") (re.++ (str.to.re "e") (str.to.re "b")))) (re.++ (str.to.re "m") (re.++ (str.to.re "a") (str.to.re "r")))) (re.++ (str.to.re "a") (re.++ (str.to.re "p") (str.to.re "r")))) (re.++ (str.to.re "m") (re.++ (str.to.re "a") (str.to.re "y")))) (re.++ (str.to.re "j") (re.++ (str.to.re "u") (str.to.re "n")))) (re.++ (str.to.re "j") (re.++ (str.to.re "u") (str.to.re "l")))) (re.++ (str.to.re "a") (re.++ (str.to.re "u") (str.to.re "g")))) (re.++ (str.to.re "s") (re.++ (str.to.re "e") (str.to.re "p")))) (re.++ (str.to.re "o") (re.++ (str.to.re "c") (str.to.re "t")))) (re.++ (str.to.re "n") (re.++ (str.to.re "o") (str.to.re "v")))) (re.++ (str.to.re "d") (re.++ (str.to.re "e") (str.to.re "c"))))) (re.++ (re.* (re.range "a" "z")) (re.++ (re.* (re.union (str.to.re " ") (re.union (str.to.re "\u{0b}") (re.union (str.to.re "\u{0a}") (re.union (str.to.re "\u{0d}") (re.union (str.to.re "\u{09}") (str.to.re "\u{0c}"))))))) (re.union (re.++ (str.to.re "") ((_ re.capture 2) (re.++ (re.range "0" "9") (re.++ (re.range "0" "9") (re.++ (re.range "0" "9") (re.range "0" "9")))))) (str.to.re "")))))))) (re.++ ((_ re.capture 3) (re.union (re.union (re.union (re.union (re.union (re.union (re.union (re.union (re.union (re.union (re.union (re.++ (str.to.re "j") (re.++ (str.to.re "a") (str.to.re "n"))) (re.++ (str.to.re "f") (re.++ (str.to.re "e") (str.to.re "b")))) (re.++ (str.to.re "m") (re.++ (str.to.re "a") (str.to.re "r")))) (re.++ (str.to.re "a") (re.++ (str.to.re "p") (str.to.re "r")))) (re.++ (str.to.re "m") (re.++ (str.to.re "a") (str.to.re "y")))) (re.++ (str.to.re "j") (re.++ (str.to.re "u") (str.to.re "n")))) (re.++ (str.to.re "j") (re.++ (str.to.re "u") (str.to.re "l")))) (re.++ (str.to.re "a") (re.++ (str.to.re "u") (str.to.re "g")))) (re.++ (str.to.re "s") (re.++ (str.to.re "e") (str.to.re "p")))) (re.++ (str.to.re "o") (re.++ (str.to.re "c") (str.to.re "t")))) (re.++ (str.to.re "n") (re.++ (str.to.re "o") (str.to.re "v")))) (re.++ (str.to.re "d") (re.++ (str.to.re "e") (str.to.re "c"))))) (re.++ (re.* (re.range "a" "z")) (re.++ (re.* (re.union (str.to.re " ") (re.union (str.to.re "\u{0b}") (re.union (str.to.re "\u{0a}") (re.union (str.to.re "\u{0d}") (re.union (str.to.re "\u{09}") (str.to.re "\u{0c}"))))))) (re.++ (re.+ (re.range "0" "9")) (re.* (re.union (str.to.re "s") (re.union (str.to.re "t") (re.union (str.to.re "n") (re.union (str.to.re "d") (re.union (str.to.re "r") (str.to.re "h")))))))))))) (re.++ (re.+ (re.range "0" "9")) (re.++ (re.union (str.to.re "/") (re.union (str.to.re ".") (str.to.re "-"))) (re.++ (re.+ (re.range "0" "9")) (re.++ (re.union (str.to.re "/") (re.union (str.to.re ".") (str.to.re "-"))) (re.++ (re.+ (re.range "0" "9")) (re.+ (re.range "0" "9")))))))) (re.++ (re.* (re.union (str.to.re "s") (re.union (str.to.re "a") (re.union (str.to.re "t") (re.union (str.to.re "u") (re.union (str.to.re "r") (re.union (str.to.re "n") (re.union (str.to.re "m") (re.union (str.to.re "o") (re.union (str.to.re "e") (re.union (str.to.re "w") (re.union (str.to.re "d") (re.union (str.to.re "h") (re.union (str.to.re "f") (str.to.re "i"))))))))))))))) (re.++ (str.to.re "d") (re.++ (str.to.re "a") (str.to.re "y"))))) re.all))) (str.to.re "\x00"))))
;match[1]!==null
(assert (str.in.re ((_ str.extract 1) var0 (re.++ (re.*? re.allchar) (re.++ (re.union (re.union (re.union (re.++ (re.+ (re.range "0" "9")) (re.++ (re.* (re.union (str.to.re "s") (re.union (str.to.re "t") (re.union (str.to.re "n") (re.union (str.to.re "d") (re.union (str.to.re "r") (str.to.re "h"))))))) (re.++ (re.* (re.union (str.to.re " ") (re.union (str.to.re "\u{0b}") (re.union (str.to.re "\u{0a}") (re.union (str.to.re "\u{0d}") (re.union (str.to.re "\u{09}") (str.to.re "\u{0c}"))))))) (re.++ ((_ re.capture 1) (re.union (re.union (re.union (re.union (re.union (re.union (re.union (re.union (re.union (re.union (re.union (re.++ (str.to.re "j") (re.++ (str.to.re "a") (str.to.re "n"))) (re.++ (str.to.re "f") (re.++ (str.to.re "e") (str.to.re "b")))) (re.++ (str.to.re "m") (re.++ (str.to.re "a") (str.to.re "r")))) (re.++ (str.to.re "a") (re.++ (str.to.re "p") (str.to.re "r")))) (re.++ (str.to.re "m") (re.++ (str.to.re "a") (str.to.re "y")))) (re.++ (str.to.re "j") (re.++ (str.to.re "u") (str.to.re "n")))) (re.++ (str.to.re "j") (re.++ (str.to.re "u") (str.to.re "l")))) (re.++ (str.to.re "a") (re.++ (str.to.re "u") (str.to.re "g")))) (re.++ (str.to.re "s") (re.++ (str.to.re "e") (str.to.re "p")))) (re.++ (str.to.re "o") (re.++ (str.to.re "c") (str.to.re "t")))) (re.++ (str.to.re "n") (re.++ (str.to.re "o") (str.to.re "v")))) (re.++ (str.to.re "d") (re.++ (str.to.re "e") (str.to.re "c"))))) (re.++ (re.* (re.range "a" "z")) (re.++ (re.* (re.union (str.to.re " ") (re.union (str.to.re "\u{0b}") (re.union (str.to.re "\u{0a}") (re.union (str.to.re "\u{0d}") (re.union (str.to.re "\u{09}") (str.to.re "\u{0c}"))))))) (re.union (re.++ (str.to.re "") ((_ re.capture 2) (re.++ (re.range "0" "9") (re.++ (re.range "0" "9") (re.++ (re.range "0" "9") (re.range "0" "9")))))) (str.to.re "")))))))) (re.++ ((_ re.capture 3) (re.union (re.union (re.union (re.union (re.union (re.union (re.union (re.union (re.union (re.union (re.union (re.++ (str.to.re "j") (re.++ (str.to.re "a") (str.to.re "n"))) (re.++ (str.to.re "f") (re.++ (str.to.re "e") (str.to.re "b")))) (re.++ (str.to.re "m") (re.++ (str.to.re "a") (str.to.re "r")))) (re.++ (str.to.re "a") (re.++ (str.to.re "p") (str.to.re "r")))) (re.++ (str.to.re "m") (re.++ (str.to.re "a") (str.to.re "y")))) (re.++ (str.to.re "j") (re.++ (str.to.re "u") (str.to.re "n")))) (re.++ (str.to.re "j") (re.++ (str.to.re "u") (str.to.re "l")))) (re.++ (str.to.re "a") (re.++ (str.to.re "u") (str.to.re "g")))) (re.++ (str.to.re "s") (re.++ (str.to.re "e") (str.to.re "p")))) (re.++ (str.to.re "o") (re.++ (str.to.re "c") (str.to.re "t")))) (re.++ (str.to.re "n") (re.++ (str.to.re "o") (str.to.re "v")))) (re.++ (str.to.re "d") (re.++ (str.to.re "e") (str.to.re "c"))))) (re.++ (re.* (re.range "a" "z")) (re.++ (re.* (re.union (str.to.re " ") (re.union (str.to.re "\u{0b}") (re.union (str.to.re "\u{0a}") (re.union (str.to.re "\u{0d}") (re.union (str.to.re "\u{09}") (str.to.re "\u{0c}"))))))) (re.++ (re.+ (re.range "0" "9")) (re.* (re.union (str.to.re "s") (re.union (str.to.re "t") (re.union (str.to.re "n") (re.union (str.to.re "d") (re.union (str.to.re "r") (str.to.re "h")))))))))))) (re.++ (re.+ (re.range "0" "9")) (re.++ (re.union (str.to.re "/") (re.union (str.to.re ".") (str.to.re "-"))) (re.++ (re.+ (re.range "0" "9")) (re.++ (re.union (str.to.re "/") (re.union (str.to.re ".") (str.to.re "-"))) (re.++ (re.+ (re.range "0" "9")) (re.+ (re.range "0" "9")))))))) (re.++ (re.* (re.union (str.to.re "s") (re.union (str.to.re "a") (re.union (str.to.re "t") (re.union (str.to.re "u") (re.union (str.to.re "r") (re.union (str.to.re "n") (re.union (str.to.re "m") (re.union (str.to.re "o") (re.union (str.to.re "e") (re.union (str.to.re "w") (re.union (str.to.re "d") (re.union (str.to.re "h") (re.union (str.to.re "f") (str.to.re "i"))))))))))))))) (re.++ (str.to.re "d") (re.++ (str.to.re "a") (str.to.re "y"))))) re.all))) (re.++ re.all(re.+ (re.range "a" "z")) re.all) ))
;/[a-z]+/.test(match[1]) == true
(check-sat)
(get-model)
(pop 1)
(push 1)
(assert (str.in.re var0 (re.* (re.range "\x01" "\xff"))))
(assert (str.in.re var0 (re.++ (re.*? re.allchar) (re.++ (re.union (re.union (re.union (re.++ (re.+ (re.range "0" "9")) (re.++ (re.* (re.union (str.to.re "s") (re.union (str.to.re "t") (re.union (str.to.re "n") (re.union (str.to.re "d") (re.union (str.to.re "r") (str.to.re "h"))))))) (re.++ (re.* (re.union (str.to.re " ") (re.union (str.to.re "\u{0b}") (re.union (str.to.re "\u{0a}") (re.union (str.to.re "\u{0d}") (re.union (str.to.re "\u{09}") (str.to.re "\u{0c}"))))))) (re.++ ((_ re.capture 1) (re.union (re.union (re.union (re.union (re.union (re.union (re.union (re.union (re.union (re.union (re.union (re.++ (str.to.re "j") (re.++ (str.to.re "a") (str.to.re "n"))) (re.++ (str.to.re "f") (re.++ (str.to.re "e") (str.to.re "b")))) (re.++ (str.to.re "m") (re.++ (str.to.re "a") (str.to.re "r")))) (re.++ (str.to.re "a") (re.++ (str.to.re "p") (str.to.re "r")))) (re.++ (str.to.re "m") (re.++ (str.to.re "a") (str.to.re "y")))) (re.++ (str.to.re "j") (re.++ (str.to.re "u") (str.to.re "n")))) (re.++ (str.to.re "j") (re.++ (str.to.re "u") (str.to.re "l")))) (re.++ (str.to.re "a") (re.++ (str.to.re "u") (str.to.re "g")))) (re.++ (str.to.re "s") (re.++ (str.to.re "e") (str.to.re "p")))) (re.++ (str.to.re "o") (re.++ (str.to.re "c") (str.to.re "t")))) (re.++ (str.to.re "n") (re.++ (str.to.re "o") (str.to.re "v")))) (re.++ (str.to.re "d") (re.++ (str.to.re "e") (str.to.re "c"))))) (re.++ (re.* (re.range "a" "z")) (re.++ (re.* (re.union (str.to.re " ") (re.union (str.to.re "\u{0b}") (re.union (str.to.re "\u{0a}") (re.union (str.to.re "\u{0d}") (re.union (str.to.re "\u{09}") (str.to.re "\u{0c}"))))))) (re.union (re.++ (str.to.re "") ((_ re.capture 2) (re.++ (re.range "0" "9") (re.++ (re.range "0" "9") (re.++ (re.range "0" "9") (re.range "0" "9")))))) (str.to.re "")))))))) (re.++ ((_ re.capture 3) (re.union (re.union (re.union (re.union (re.union (re.union (re.union (re.union (re.union (re.union (re.union (re.++ (str.to.re "j") (re.++ (str.to.re "a") (str.to.re "n"))) (re.++ (str.to.re "f") (re.++ (str.to.re "e") (str.to.re "b")))) (re.++ (str.to.re "m") (re.++ (str.to.re "a") (str.to.re "r")))) (re.++ (str.to.re "a") (re.++ (str.to.re "p") (str.to.re "r")))) (re.++ (str.to.re "m") (re.++ (str.to.re "a") (str.to.re "y")))) (re.++ (str.to.re "j") (re.++ (str.to.re "u") (str.to.re "n")))) (re.++ (str.to.re "j") (re.++ (str.to.re "u") (str.to.re "l")))) (re.++ (str.to.re "a") (re.++ (str.to.re "u") (str.to.re "g")))) (re.++ (str.to.re "s") (re.++ (str.to.re "e") (str.to.re "p")))) (re.++ (str.to.re "o") (re.++ (str.to.re "c") (str.to.re "t")))) (re.++ (str.to.re "n") (re.++ (str.to.re "o") (str.to.re "v")))) (re.++ (str.to.re "d") (re.++ (str.to.re "e") (str.to.re "c"))))) (re.++ (re.* (re.range "a" "z")) (re.++ (re.* (re.union (str.to.re " ") (re.union (str.to.re "\u{0b}") (re.union (str.to.re "\u{0a}") (re.union (str.to.re "\u{0d}") (re.union (str.to.re "\u{09}") (str.to.re "\u{0c}"))))))) (re.++ (re.+ (re.range "0" "9")) (re.* (re.union (str.to.re "s") (re.union (str.to.re "t") (re.union (str.to.re "n") (re.union (str.to.re "d") (re.union (str.to.re "r") (str.to.re "h")))))))))))) (re.++ (re.+ (re.range "0" "9")) (re.++ (re.union (str.to.re "/") (re.union (str.to.re ".") (str.to.re "-"))) (re.++ (re.+ (re.range "0" "9")) (re.++ (re.union (str.to.re "/") (re.union (str.to.re ".") (str.to.re "-"))) (re.++ (re.+ (re.range "0" "9")) (re.+ (re.range "0" "9")))))))) (re.++ (re.* (re.union (str.to.re "s") (re.union (str.to.re "a") (re.union (str.to.re "t") (re.union (str.to.re "u") (re.union (str.to.re "r") (re.union (str.to.re "n") (re.union (str.to.re "m") (re.union (str.to.re "o") (re.union (str.to.re "e") (re.union (str.to.re "w") (re.union (str.to.re "d") (re.union (str.to.re "h") (re.union (str.to.re "f") (str.to.re "i"))))))))))))))) (re.++ (str.to.re "d") (re.++ (str.to.re "a") (str.to.re "y"))))) re.all))))	; match!==null
(assert (not (str.in.re ((_ str.extract 1) var0 (re.++ (re.*? re.allchar) (re.++ (re.union (re.union (re.union (re.++ (re.+ (re.range "0" "9")) (re.++ (re.* (re.union (str.to.re "s") (re.union (str.to.re "t") (re.union (str.to.re "n") (re.union (str.to.re "d") (re.union (str.to.re "r") (str.to.re "h"))))))) (re.++ (re.* (re.union (str.to.re " ") (re.union (str.to.re "\u{0b}") (re.union (str.to.re "\u{0a}") (re.union (str.to.re "\u{0d}") (re.union (str.to.re "\u{09}") (str.to.re "\u{0c}"))))))) (re.++ ((_ re.capture 1) (re.union (re.union (re.union (re.union (re.union (re.union (re.union (re.union (re.union (re.union (re.union (re.++ (str.to.re "j") (re.++ (str.to.re "a") (str.to.re "n"))) (re.++ (str.to.re "f") (re.++ (str.to.re "e") (str.to.re "b")))) (re.++ (str.to.re "m") (re.++ (str.to.re "a") (str.to.re "r")))) (re.++ (str.to.re "a") (re.++ (str.to.re "p") (str.to.re "r")))) (re.++ (str.to.re "m") (re.++ (str.to.re "a") (str.to.re "y")))) (re.++ (str.to.re "j") (re.++ (str.to.re "u") (str.to.re "n")))) (re.++ (str.to.re "j") (re.++ (str.to.re "u") (str.to.re "l")))) (re.++ (str.to.re "a") (re.++ (str.to.re "u") (str.to.re "g")))) (re.++ (str.to.re "s") (re.++ (str.to.re "e") (str.to.re "p")))) (re.++ (str.to.re "o") (re.++ (str.to.re "c") (str.to.re "t")))) (re.++ (str.to.re "n") (re.++ (str.to.re "o") (str.to.re "v")))) (re.++ (str.to.re "d") (re.++ (str.to.re "e") (str.to.re "c"))))) (re.++ (re.* (re.range "a" "z")) (re.++ (re.* (re.union (str.to.re " ") (re.union (str.to.re "\u{0b}") (re.union (str.to.re "\u{0a}") (re.union (str.to.re "\u{0d}") (re.union (str.to.re "\u{09}") (str.to.re "\u{0c}"))))))) (re.union (re.++ (str.to.re "") ((_ re.capture 2) (re.++ (re.range "0" "9") (re.++ (re.range "0" "9") (re.++ (re.range "0" "9") (re.range "0" "9")))))) (str.to.re "")))))))) (re.++ ((_ re.capture 3) (re.union (re.union (re.union (re.union (re.union (re.union (re.union (re.union (re.union (re.union (re.union (re.++ (str.to.re "j") (re.++ (str.to.re "a") (str.to.re "n"))) (re.++ (str.to.re "f") (re.++ (str.to.re "e") (str.to.re "b")))) (re.++ (str.to.re "m") (re.++ (str.to.re "a") (str.to.re "r")))) (re.++ (str.to.re "a") (re.++ (str.to.re "p") (str.to.re "r")))) (re.++ (str.to.re "m") (re.++ (str.to.re "a") (str.to.re "y")))) (re.++ (str.to.re "j") (re.++ (str.to.re "u") (str.to.re "n")))) (re.++ (str.to.re "j") (re.++ (str.to.re "u") (str.to.re "l")))) (re.++ (str.to.re "a") (re.++ (str.to.re "u") (str.to.re "g")))) (re.++ (str.to.re "s") (re.++ (str.to.re "e") (str.to.re "p")))) (re.++ (str.to.re "o") (re.++ (str.to.re "c") (str.to.re "t")))) (re.++ (str.to.re "n") (re.++ (str.to.re "o") (str.to.re "v")))) (re.++ (str.to.re "d") (re.++ (str.to.re "e") (str.to.re "c"))))) (re.++ (re.* (re.range "a" "z")) (re.++ (re.* (re.union (str.to.re " ") (re.union (str.to.re "\u{0b}") (re.union (str.to.re "\u{0a}") (re.union (str.to.re "\u{0d}") (re.union (str.to.re "\u{09}") (str.to.re "\u{0c}"))))))) (re.++ (re.+ (re.range "0" "9")) (re.* (re.union (str.to.re "s") (re.union (str.to.re "t") (re.union (str.to.re "n") (re.union (str.to.re "d") (re.union (str.to.re "r") (str.to.re "h")))))))))))) (re.++ (re.+ (re.range "0" "9")) (re.++ (re.union (str.to.re "/") (re.union (str.to.re ".") (str.to.re "-"))) (re.++ (re.+ (re.range "0" "9")) (re.++ (re.union (str.to.re "/") (re.union (str.to.re ".") (str.to.re "-"))) (re.++ (re.+ (re.range "0" "9")) (re.+ (re.range "0" "9")))))))) (re.++ (re.* (re.union (str.to.re "s") (re.union (str.to.re "a") (re.union (str.to.re "t") (re.union (str.to.re "u") (re.union (str.to.re "r") (re.union (str.to.re "n") (re.union (str.to.re "m") (re.union (str.to.re "o") (re.union (str.to.re "e") (re.union (str.to.re "w") (re.union (str.to.re "d") (re.union (str.to.re "h") (re.union (str.to.re "f") (str.to.re "i"))))))))))))))) (re.++ (str.to.re "d") (re.++ (str.to.re "a") (str.to.re "y"))))) re.all))) (str.to.re "\x00"))))	
;match[1]!==null
(assert (not (str.in.re ((_ str.extract 1) var0 (re.++ (re.*? re.allchar) (re.++ (re.union (re.union (re.union (re.++ (re.+ (re.range "0" "9")) (re.++ (re.* (re.union (str.to.re "s") (re.union (str.to.re "t") (re.union (str.to.re "n") (re.union (str.to.re "d") (re.union (str.to.re "r") (str.to.re "h"))))))) (re.++ (re.* (re.union (str.to.re " ") (re.union (str.to.re "\u{0b}") (re.union (str.to.re "\u{0a}") (re.union (str.to.re "\u{0d}") (re.union (str.to.re "\u{09}") (str.to.re "\u{0c}"))))))) (re.++ ((_ re.capture 1) (re.union (re.union (re.union (re.union (re.union (re.union (re.union (re.union (re.union (re.union (re.union (re.++ (str.to.re "j") (re.++ (str.to.re "a") (str.to.re "n"))) (re.++ (str.to.re "f") (re.++ (str.to.re "e") (str.to.re "b")))) (re.++ (str.to.re "m") (re.++ (str.to.re "a") (str.to.re "r")))) (re.++ (str.to.re "a") (re.++ (str.to.re "p") (str.to.re "r")))) (re.++ (str.to.re "m") (re.++ (str.to.re "a") (str.to.re "y")))) (re.++ (str.to.re "j") (re.++ (str.to.re "u") (str.to.re "n")))) (re.++ (str.to.re "j") (re.++ (str.to.re "u") (str.to.re "l")))) (re.++ (str.to.re "a") (re.++ (str.to.re "u") (str.to.re "g")))) (re.++ (str.to.re "s") (re.++ (str.to.re "e") (str.to.re "p")))) (re.++ (str.to.re "o") (re.++ (str.to.re "c") (str.to.re "t")))) (re.++ (str.to.re "n") (re.++ (str.to.re "o") (str.to.re "v")))) (re.++ (str.to.re "d") (re.++ (str.to.re "e") (str.to.re "c"))))) (re.++ (re.* (re.range "a" "z")) (re.++ (re.* (re.union (str.to.re " ") (re.union (str.to.re "\u{0b}") (re.union (str.to.re "\u{0a}") (re.union (str.to.re "\u{0d}") (re.union (str.to.re "\u{09}") (str.to.re "\u{0c}"))))))) (re.union (re.++ (str.to.re "") ((_ re.capture 2) (re.++ (re.range "0" "9") (re.++ (re.range "0" "9") (re.++ (re.range "0" "9") (re.range "0" "9")))))) (str.to.re "")))))))) (re.++ ((_ re.capture 3) (re.union (re.union (re.union (re.union (re.union (re.union (re.union (re.union (re.union (re.union (re.union (re.++ (str.to.re "j") (re.++ (str.to.re "a") (str.to.re "n"))) (re.++ (str.to.re "f") (re.++ (str.to.re "e") (str.to.re "b")))) (re.++ (str.to.re "m") (re.++ (str.to.re "a") (str.to.re "r")))) (re.++ (str.to.re "a") (re.++ (str.to.re "p") (str.to.re "r")))) (re.++ (str.to.re "m") (re.++ (str.to.re "a") (str.to.re "y")))) (re.++ (str.to.re "j") (re.++ (str.to.re "u") (str.to.re "n")))) (re.++ (str.to.re "j") (re.++ (str.to.re "u") (str.to.re "l")))) (re.++ (str.to.re "a") (re.++ (str.to.re "u") (str.to.re "g")))) (re.++ (str.to.re "s") (re.++ (str.to.re "e") (str.to.re "p")))) (re.++ (str.to.re "o") (re.++ (str.to.re "c") (str.to.re "t")))) (re.++ (str.to.re "n") (re.++ (str.to.re "o") (str.to.re "v")))) (re.++ (str.to.re "d") (re.++ (str.to.re "e") (str.to.re "c"))))) (re.++ (re.* (re.range "a" "z")) (re.++ (re.* (re.union (str.to.re " ") (re.union (str.to.re "\u{0b}") (re.union (str.to.re "\u{0a}") (re.union (str.to.re "\u{0d}") (re.union (str.to.re "\u{09}") (str.to.re "\u{0c}"))))))) (re.++ (re.+ (re.range "0" "9")) (re.* (re.union (str.to.re "s") (re.union (str.to.re "t") (re.union (str.to.re "n") (re.union (str.to.re "d") (re.union (str.to.re "r") (str.to.re "h")))))))))))) (re.++ (re.+ (re.range "0" "9")) (re.++ (re.union (str.to.re "/") (re.union (str.to.re ".") (str.to.re "-"))) (re.++ (re.+ (re.range "0" "9")) (re.++ (re.union (str.to.re "/") (re.union (str.to.re ".") (str.to.re "-"))) (re.++ (re.+ (re.range "0" "9")) (re.+ (re.range "0" "9")))))))) (re.++ (re.* (re.union (str.to.re "s") (re.union (str.to.re "a") (re.union (str.to.re "t") (re.union (str.to.re "u") (re.union (str.to.re "r") (re.union (str.to.re "n") (re.union (str.to.re "m") (re.union (str.to.re "o") (re.union (str.to.re "e") (re.union (str.to.re "w") (re.union (str.to.re "d") (re.union (str.to.re "h") (re.union (str.to.re "f") (str.to.re "i"))))))))))))))) (re.++ (str.to.re "d") (re.++ (str.to.re "a") (str.to.re "y"))))) re.all))) (re.++ re.all(re.+ (re.range "a" "z")) re.all) )))
;/[a-z]+/.test(match[1]) == false	
(check-sat)
(get-model)
(pop 1)
(push 1)
(assert (str.in.re var0 (re.* (re.range "\x01" "\xff"))))
(assert (str.in.re var0 (re.++ (re.*? re.allchar) (re.++ (re.union (re.union (re.union (re.++ (re.+ (re.range "0" "9")) (re.++ (re.* (re.union (str.to.re "s") (re.union (str.to.re "t") (re.union (str.to.re "n") (re.union (str.to.re "d") (re.union (str.to.re "r") (str.to.re "h"))))))) (re.++ (re.* (re.union (str.to.re " ") (re.union (str.to.re "\u{0b}") (re.union (str.to.re "\u{0a}") (re.union (str.to.re "\u{0d}") (re.union (str.to.re "\u{09}") (str.to.re "\u{0c}"))))))) (re.++ ((_ re.capture 1) (re.union (re.union (re.union (re.union (re.union (re.union (re.union (re.union (re.union (re.union (re.union (re.++ (str.to.re "j") (re.++ (str.to.re "a") (str.to.re "n"))) (re.++ (str.to.re "f") (re.++ (str.to.re "e") (str.to.re "b")))) (re.++ (str.to.re "m") (re.++ (str.to.re "a") (str.to.re "r")))) (re.++ (str.to.re "a") (re.++ (str.to.re "p") (str.to.re "r")))) (re.++ (str.to.re "m") (re.++ (str.to.re "a") (str.to.re "y")))) (re.++ (str.to.re "j") (re.++ (str.to.re "u") (str.to.re "n")))) (re.++ (str.to.re "j") (re.++ (str.to.re "u") (str.to.re "l")))) (re.++ (str.to.re "a") (re.++ (str.to.re "u") (str.to.re "g")))) (re.++ (str.to.re "s") (re.++ (str.to.re "e") (str.to.re "p")))) (re.++ (str.to.re "o") (re.++ (str.to.re "c") (str.to.re "t")))) (re.++ (str.to.re "n") (re.++ (str.to.re "o") (str.to.re "v")))) (re.++ (str.to.re "d") (re.++ (str.to.re "e") (str.to.re "c"))))) (re.++ (re.* (re.range "a" "z")) (re.++ (re.* (re.union (str.to.re " ") (re.union (str.to.re "\u{0b}") (re.union (str.to.re "\u{0a}") (re.union (str.to.re "\u{0d}") (re.union (str.to.re "\u{09}") (str.to.re "\u{0c}"))))))) (re.union (re.++ (str.to.re "") ((_ re.capture 2) (re.++ (re.range "0" "9") (re.++ (re.range "0" "9") (re.++ (re.range "0" "9") (re.range "0" "9")))))) (str.to.re "")))))))) (re.++ ((_ re.capture 3) (re.union (re.union (re.union (re.union (re.union (re.union (re.union (re.union (re.union (re.union (re.union (re.++ (str.to.re "j") (re.++ (str.to.re "a") (str.to.re "n"))) (re.++ (str.to.re "f") (re.++ (str.to.re "e") (str.to.re "b")))) (re.++ (str.to.re "m") (re.++ (str.to.re "a") (str.to.re "r")))) (re.++ (str.to.re "a") (re.++ (str.to.re "p") (str.to.re "r")))) (re.++ (str.to.re "m") (re.++ (str.to.re "a") (str.to.re "y")))) (re.++ (str.to.re "j") (re.++ (str.to.re "u") (str.to.re "n")))) (re.++ (str.to.re "j") (re.++ (str.to.re "u") (str.to.re "l")))) (re.++ (str.to.re "a") (re.++ (str.to.re "u") (str.to.re "g")))) (re.++ (str.to.re "s") (re.++ (str.to.re "e") (str.to.re "p")))) (re.++ (str.to.re "o") (re.++ (str.to.re "c") (str.to.re "t")))) (re.++ (str.to.re "n") (re.++ (str.to.re "o") (str.to.re "v")))) (re.++ (str.to.re "d") (re.++ (str.to.re "e") (str.to.re "c"))))) (re.++ (re.* (re.range "a" "z")) (re.++ (re.* (re.union (str.to.re " ") (re.union (str.to.re "\u{0b}") (re.union (str.to.re "\u{0a}") (re.union (str.to.re "\u{0d}") (re.union (str.to.re "\u{09}") (str.to.re "\u{0c}"))))))) (re.++ (re.+ (re.range "0" "9")) (re.* (re.union (str.to.re "s") (re.union (str.to.re "t") (re.union (str.to.re "n") (re.union (str.to.re "d") (re.union (str.to.re "r") (str.to.re "h")))))))))))) (re.++ (re.+ (re.range "0" "9")) (re.++ (re.union (str.to.re "/") (re.union (str.to.re ".") (str.to.re "-"))) (re.++ (re.+ (re.range "0" "9")) (re.++ (re.union (str.to.re "/") (re.union (str.to.re ".") (str.to.re "-"))) (re.++ (re.+ (re.range "0" "9")) (re.+ (re.range "0" "9")))))))) (re.++ (re.* (re.union (str.to.re "s") (re.union (str.to.re "a") (re.union (str.to.re "t") (re.union (str.to.re "u") (re.union (str.to.re "r") (re.union (str.to.re "n") (re.union (str.to.re "m") (re.union (str.to.re "o") (re.union (str.to.re "e") (re.union (str.to.re "w") (re.union (str.to.re "d") (re.union (str.to.re "h") (re.union (str.to.re "f") (str.to.re "i"))))))))))))))) (re.++ (str.to.re "d") (re.++ (str.to.re "a") (str.to.re "y"))))) re.all))))	; match!==null
(assert (str.in.re ((_ str.extract 1) var0 (re.++ (re.*? re.allchar) (re.++ (re.union (re.union (re.union (re.++ (re.+ (re.range "0" "9")) (re.++ (re.* (re.union (str.to.re "s") (re.union (str.to.re "t") (re.union (str.to.re "n") (re.union (str.to.re "d") (re.union (str.to.re "r") (str.to.re "h"))))))) (re.++ (re.* (re.union (str.to.re " ") (re.union (str.to.re "\u{0b}") (re.union (str.to.re "\u{0a}") (re.union (str.to.re "\u{0d}") (re.union (str.to.re "\u{09}") (str.to.re "\u{0c}"))))))) (re.++ ((_ re.capture 1) (re.union (re.union (re.union (re.union (re.union (re.union (re.union (re.union (re.union (re.union (re.union (re.++ (str.to.re "j") (re.++ (str.to.re "a") (str.to.re "n"))) (re.++ (str.to.re "f") (re.++ (str.to.re "e") (str.to.re "b")))) (re.++ (str.to.re "m") (re.++ (str.to.re "a") (str.to.re "r")))) (re.++ (str.to.re "a") (re.++ (str.to.re "p") (str.to.re "r")))) (re.++ (str.to.re "m") (re.++ (str.to.re "a") (str.to.re "y")))) (re.++ (str.to.re "j") (re.++ (str.to.re "u") (str.to.re "n")))) (re.++ (str.to.re "j") (re.++ (str.to.re "u") (str.to.re "l")))) (re.++ (str.to.re "a") (re.++ (str.to.re "u") (str.to.re "g")))) (re.++ (str.to.re "s") (re.++ (str.to.re "e") (str.to.re "p")))) (re.++ (str.to.re "o") (re.++ (str.to.re "c") (str.to.re "t")))) (re.++ (str.to.re "n") (re.++ (str.to.re "o") (str.to.re "v")))) (re.++ (str.to.re "d") (re.++ (str.to.re "e") (str.to.re "c"))))) (re.++ (re.* (re.range "a" "z")) (re.++ (re.* (re.union (str.to.re " ") (re.union (str.to.re "\u{0b}") (re.union (str.to.re "\u{0a}") (re.union (str.to.re "\u{0d}") (re.union (str.to.re "\u{09}") (str.to.re "\u{0c}"))))))) (re.union (re.++ (str.to.re "") ((_ re.capture 2) (re.++ (re.range "0" "9") (re.++ (re.range "0" "9") (re.++ (re.range "0" "9") (re.range "0" "9")))))) (str.to.re "")))))))) (re.++ ((_ re.capture 3) (re.union (re.union (re.union (re.union (re.union (re.union (re.union (re.union (re.union (re.union (re.union (re.++ (str.to.re "j") (re.++ (str.to.re "a") (str.to.re "n"))) (re.++ (str.to.re "f") (re.++ (str.to.re "e") (str.to.re "b")))) (re.++ (str.to.re "m") (re.++ (str.to.re "a") (str.to.re "r")))) (re.++ (str.to.re "a") (re.++ (str.to.re "p") (str.to.re "r")))) (re.++ (str.to.re "m") (re.++ (str.to.re "a") (str.to.re "y")))) (re.++ (str.to.re "j") (re.++ (str.to.re "u") (str.to.re "n")))) (re.++ (str.to.re "j") (re.++ (str.to.re "u") (str.to.re "l")))) (re.++ (str.to.re "a") (re.++ (str.to.re "u") (str.to.re "g")))) (re.++ (str.to.re "s") (re.++ (str.to.re "e") (str.to.re "p")))) (re.++ (str.to.re "o") (re.++ (str.to.re "c") (str.to.re "t")))) (re.++ (str.to.re "n") (re.++ (str.to.re "o") (str.to.re "v")))) (re.++ (str.to.re "d") (re.++ (str.to.re "e") (str.to.re "c"))))) (re.++ (re.* (re.range "a" "z")) (re.++ (re.* (re.union (str.to.re " ") (re.union (str.to.re "\u{0b}") (re.union (str.to.re "\u{0a}") (re.union (str.to.re "\u{0d}") (re.union (str.to.re "\u{09}") (str.to.re "\u{0c}"))))))) (re.++ (re.+ (re.range "0" "9")) (re.* (re.union (str.to.re "s") (re.union (str.to.re "t") (re.union (str.to.re "n") (re.union (str.to.re "d") (re.union (str.to.re "r") (str.to.re "h")))))))))))) (re.++ (re.+ (re.range "0" "9")) (re.++ (re.union (str.to.re "/") (re.union (str.to.re ".") (str.to.re "-"))) (re.++ (re.+ (re.range "0" "9")) (re.++ (re.union (str.to.re "/") (re.union (str.to.re ".") (str.to.re "-"))) (re.++ (re.+ (re.range "0" "9")) (re.+ (re.range "0" "9")))))))) (re.++ (re.* (re.union (str.to.re "s") (re.union (str.to.re "a") (re.union (str.to.re "t") (re.union (str.to.re "u") (re.union (str.to.re "r") (re.union (str.to.re "n") (re.union (str.to.re "m") (re.union (str.to.re "o") (re.union (str.to.re "e") (re.union (str.to.re "w") (re.union (str.to.re "d") (re.union (str.to.re "h") (re.union (str.to.re "f") (str.to.re "i"))))))))))))))) (re.++ (str.to.re "d") (re.++ (str.to.re "a") (str.to.re "y"))))) re.all))) (str.to.re "\x00")))
;match[1]==null
(check-sat)
(get-model)
(pop 1)
(push 1)
(assert (str.in.re var0 (re.* (re.range "\x01" "\xff"))))
(assert (not (str.in.re var0 (re.++ (re.*? re.allchar) (re.++ (re.union (re.union (re.union (re.++ (re.+ (re.range "0" "9")) (re.++ (re.* (re.union (str.to.re "s") (re.union (str.to.re "t") (re.union (str.to.re "n") (re.union (str.to.re "d") (re.union (str.to.re "r") (str.to.re "h"))))))) (re.++ (re.* (re.union (str.to.re " ") (re.union (str.to.re "\u{0b}") (re.union (str.to.re "\u{0a}") (re.union (str.to.re "\u{0d}") (re.union (str.to.re "\u{09}") (str.to.re "\u{0c}"))))))) (re.++ ((_ re.capture 1) (re.union (re.union (re.union (re.union (re.union (re.union (re.union (re.union (re.union (re.union (re.union (re.++ (str.to.re "j") (re.++ (str.to.re "a") (str.to.re "n"))) (re.++ (str.to.re "f") (re.++ (str.to.re "e") (str.to.re "b")))) (re.++ (str.to.re "m") (re.++ (str.to.re "a") (str.to.re "r")))) (re.++ (str.to.re "a") (re.++ (str.to.re "p") (str.to.re "r")))) (re.++ (str.to.re "m") (re.++ (str.to.re "a") (str.to.re "y")))) (re.++ (str.to.re "j") (re.++ (str.to.re "u") (str.to.re "n")))) (re.++ (str.to.re "j") (re.++ (str.to.re "u") (str.to.re "l")))) (re.++ (str.to.re "a") (re.++ (str.to.re "u") (str.to.re "g")))) (re.++ (str.to.re "s") (re.++ (str.to.re "e") (str.to.re "p")))) (re.++ (str.to.re "o") (re.++ (str.to.re "c") (str.to.re "t")))) (re.++ (str.to.re "n") (re.++ (str.to.re "o") (str.to.re "v")))) (re.++ (str.to.re "d") (re.++ (str.to.re "e") (str.to.re "c"))))) (re.++ (re.* (re.range "a" "z")) (re.++ (re.* (re.union (str.to.re " ") (re.union (str.to.re "\u{0b}") (re.union (str.to.re "\u{0a}") (re.union (str.to.re "\u{0d}") (re.union (str.to.re "\u{09}") (str.to.re "\u{0c}"))))))) (re.union (re.++ (str.to.re "") ((_ re.capture 2) (re.++ (re.range "0" "9") (re.++ (re.range "0" "9") (re.++ (re.range "0" "9") (re.range "0" "9")))))) (str.to.re "")))))))) (re.++ ((_ re.capture 3) (re.union (re.union (re.union (re.union (re.union (re.union (re.union (re.union (re.union (re.union (re.union (re.++ (str.to.re "j") (re.++ (str.to.re "a") (str.to.re "n"))) (re.++ (str.to.re "f") (re.++ (str.to.re "e") (str.to.re "b")))) (re.++ (str.to.re "m") (re.++ (str.to.re "a") (str.to.re "r")))) (re.++ (str.to.re "a") (re.++ (str.to.re "p") (str.to.re "r")))) (re.++ (str.to.re "m") (re.++ (str.to.re "a") (str.to.re "y")))) (re.++ (str.to.re "j") (re.++ (str.to.re "u") (str.to.re "n")))) (re.++ (str.to.re "j") (re.++ (str.to.re "u") (str.to.re "l")))) (re.++ (str.to.re "a") (re.++ (str.to.re "u") (str.to.re "g")))) (re.++ (str.to.re "s") (re.++ (str.to.re "e") (str.to.re "p")))) (re.++ (str.to.re "o") (re.++ (str.to.re "c") (str.to.re "t")))) (re.++ (str.to.re "n") (re.++ (str.to.re "o") (str.to.re "v")))) (re.++ (str.to.re "d") (re.++ (str.to.re "e") (str.to.re "c"))))) (re.++ (re.* (re.range "a" "z")) (re.++ (re.* (re.union (str.to.re " ") (re.union (str.to.re "\u{0b}") (re.union (str.to.re "\u{0a}") (re.union (str.to.re "\u{0d}") (re.union (str.to.re "\u{09}") (str.to.re "\u{0c}"))))))) (re.++ (re.+ (re.range "0" "9")) (re.* (re.union (str.to.re "s") (re.union (str.to.re "t") (re.union (str.to.re "n") (re.union (str.to.re "d") (re.union (str.to.re "r") (str.to.re "h")))))))))))) (re.++ (re.+ (re.range "0" "9")) (re.++ (re.union (str.to.re "/") (re.union (str.to.re ".") (str.to.re "-"))) (re.++ (re.+ (re.range "0" "9")) (re.++ (re.union (str.to.re "/") (re.union (str.to.re ".") (str.to.re "-"))) (re.++ (re.+ (re.range "0" "9")) (re.+ (re.range "0" "9")))))))) (re.++ (re.* (re.union (str.to.re "s") (re.union (str.to.re "a") (re.union (str.to.re "t") (re.union (str.to.re "u") (re.union (str.to.re "r") (re.union (str.to.re "n") (re.union (str.to.re "m") (re.union (str.to.re "o") (re.union (str.to.re "e") (re.union (str.to.re "w") (re.union (str.to.re "d") (re.union (str.to.re "h") (re.union (str.to.re "f") (str.to.re "i"))))))))))))))) (re.++ (str.to.re "d") (re.++ (str.to.re "a") (str.to.re "y"))))) re.all)))))	; match == null
(check-sat)
(get-model)
(pop 1)
(exit)
